Normalized Data/p03_1090_tsplib0_normalized_splitx10_0.vrp
NAME:p03_1090_tsplib0_NORMALIZED_splitx10_
BEST_KNOWN: 0
COMMENT: 0
DIMENSION: 556
CAPACITY: 1000
EDGE_WEIGHT_FORMAT: FUNCTION
EDGE_WEIGHT_TYPE: EXACT_2D
NODE_COORD_SECTION
1 0.00000 0.00000
2 6 14
3 6 14
4 6 14
5 6 14
6 6 14
7 6 14
8 6 14
9 6 14
10 0 -18
11 0 -18
12 0 -18
13 20 10
14 20 10
15 20 10
16 20 10
17 20 10
18 20 -15
19 20 -15
20 20 -15
21 20 -15
22 20 -15
23 20 -15
24 20 -15
25 -20 -5
26 -20 -5
27 -20 -5
28 -20 -5
29 -20 -5
30 -20 -5
31 -10 -5
32 -10 -5
33 -10 -5
34 -10 -5
35 -10 -5
36 -10 -5
37 -10 -5
38 -10 -5
39 -15 15
40 -15 15
41 -15 15
42 -15 15
43 -15 15
44 -15 15
45 -15 15
46 -25 8
47 -25 8
48 -25 8
49 -25 8
50 -25 8
51 20 25
52 20 25
53 20 25
54 -5 25
55 -5 25
56 -5 25
57 -15 30
58 -15 30
59 -15 30
60 -15 30
61 -15 30
62 -15 30
63 -15 30
64 -15 30
65 15 0
66 15 0
67 15 0
68 -5 -10
69 -5 -10
70 -5 -10
71 -5 -10
72 -5 -10
73 -20 -25
74 -20 -25
75 -20 -25
76 -20 -25
77 -5 -30
78 -5 -30
79 -5 -30
80 -5 -30
81 -5 -30
82 -25 -15
83 -25 -15
84 -25 -15
85 -25 -15
86 -25 -15
87 -30 -5
88 -30 -5
89 -30 -5
90 -15 5
91 -15 5
92 -15 5
93 -20 25
94 -20 25
95 -20 25
96 -20 25
97 -20 25
98 -20 25
99 -20 25
100 -20 25
101 10 30
102 10 30
103 10 30
104 10 30
105 10 30
106 10 30
107 10 -15
108 10 -15
109 10 -15
110 10 -15
111 10 -15
112 10 -25
113 10 -25
114 10 -25
115 20 -30
116 20 -30
117 20 -30
118 20 -30
119 20 -30
120 30 0
121 30 0
122 30 0
123 30 0
124 30 0
125 30 -15
126 30 -15
127 30 -15
128 30 -15
129 30 -15
130 30 -15
131 30 -15
132 10 -5
133 10 -5
134 10 -5
135 10 -5
136 10 -5
137 10 -5
138 10 -5
139 0 5
140 0 5
141 0 5
142 6 2
143 6 2
144 6 2
145 6 2
146 6 2
147 6 2
148 29 7
149 29 7
150 29 7
151 5 25
152 5 25
153 5 25
154 5 25
155 5 25
156 -4 17
157 -4 17
158 -4 17
159 -4 17
160 -4 17
161 -4 17
162 -4 17
163 -4 17
164 0 34
165 0 34
166 0 34
167 0 34
168 0 34
169 0 34
170 0 34
171 0 34
172 18 17
173 18 17
174 18 17
175 18 17
176 18 17
177 18 17
178 30 20
179 30 20
180 30 20
181 30 20
182 28 30
183 28 30
184 28 30
185 28 30
186 28 30
187 28 30
188 28 30
189 -33 25
190 -33 25
191 -33 25
192 -33 25
193 -33 25
194 -33 25
195 -15 -15
196 -15 -15
197 -15 -15
198 -15 -15
199 -15 -15
200 -15 -15
201 -30 -30
202 -30 -30
203 -30 -30
204 -30 -30
205 -30 -30
206 -30 -30
207 25 -23
208 25 -23
209 25 -23
210 25 -23
211 25 -23
212 25 -23
213 5 -10
214 5 -10
215 5 -10
216 5 -10
217 5 -10
218 5 -10
219 7 -28
220 7 -28
221 -11 -23
222 -11 -23
223 -12 -32
224 -12 -32
225 -12 -32
226 -24 -21
227 -24 -21
228 -24 -21
229 -24 -21
230 -24 -21
231 -24 -21
232 -29 3
233 -29 3
234 -29 3
235 -29 3
236 -33 13
237 -33 13
238 -33 13
239 -33 13
240 -27 21
241 -27 21
242 -27 21
243 -27 21
244 -27 21
245 -27 21
246 -27 21
247 -22 17
248 -22 17
249 -22 17
250 -22 17
251 -22 17
252 -22 17
253 -29 33
254 -29 33
255 -29 33
256 -29 33
257 -29 33
258 -29 33
259 -29 33
260 12 12
261 12 12
262 12 12
263 12 12
264 12 12
265 12 12
266 12 12
267 12 12
268 14 23
269 14 23
270 14 23
271 14 23
272 14 23
273 14 23
274 -8 8
275 -8 8
276 -8 8
277 -8 8
278 -8 8
279 2 -4
280 2 -4
281 2 -4
282 22 -6
283 22 -6
284 22 -6
285 22 -6
286 22 -6
287 22 -6
288 22 -6
289 28 -12
290 28 -12
291 28 -12
292 28 -12
293 28 -12
294 28 -12
295 28 -12
296 28 -12
297 18 -23
298 18 -23
299 18 -23
300 18 -23
301 18 -23
302 18 -23
303 18 -23
304 -3 -23
305 -3 -23
306 -3 -23
307 -3 -23
308 -3 -23
309 -3 -23
310 1 -9
311 1 -9
312 1 -9
313 1 -9
314 1 -9
315 -14 -11
316 -14 -11
317 -14 -11
318 -14 -11
319 -18 -1
320 -18 -1
321 -18 -1
322 -18 -1
323 -18 -1
324 -23 -11
325 -23 -11
326 -23 -11
327 -23 -11
328 -11 23
329 -11 23
330 -11 23
331 -8 34
332 -8 34
333 -8 34
334 -20 42
335 -20 42
336 -20 42
337 -20 42
338 -20 42
339 27 42
340 27 42
341 27 42
342 27 42
343 27 42
344 27 42
345 14 38
346 14 38
347 14 38
348 14 38
349 14 38
350 14 38
351 32 -30
352 32 -30
353 32 -30
354 32 -30
355 32 -30
356 32 -30
357 32 -30
358 32 -30
359 21 4
360 21 4
361 21 4
362 21 4
363 2 12
364 2 12
365 2 12
366 2 12
367 2 12
368 2 12
369 2 12
370 2 12
371 2 21
372 2 21
373 2 21
374 2 21
375 2 21
376 2 21
377 2 21
378 2 21
379 2 21
380 22 33
381 22 33
382 22 33
383 22 33
384 22 33
385 12 -19
386 12 -19
387 12 -19
388 12 -19
389 12 -19
390 9 -18
391 9 -18
392 9 -18
393 9 -18
394 9 -18
395 9 -18
396 9 -18
397 11 -22
398 11 -22
399 11 -22
400 11 -22
401 11 -22
402 11 -22
403 11 -22
404 11 -22
405 11 -22
406 14 -24
407 14 -24
408 14 -24
409 14 -24
410 14 -24
411 14 7
412 14 7
413 14 7
414 14 7
415 18 8
416 18 8
417 18 8
418 18 8
419 18 8
420 26 17
421 26 17
422 26 17
423 26 17
424 26 17
425 26 17
426 22 13
427 22 13
428 22 13
429 22 13
430 21 2
431 21 2
432 21 2
433 21 2
434 21 2
435 21 2
436 21 2
437 21 2
438 20 19
439 20 19
440 20 19
441 20 19
442 20 19
443 -20 12
444 -20 12
445 -20 12
446 -20 12
447 -21 2
448 -21 2
449 -21 2
450 -21 2
451 -21 2
452 -21 2
453 -21 2
454 -24 -4
455 -24 -4
456 -24 -4
457 -24 -4
458 -19 -13
459 -19 -13
460 -19 -13
461 -19 -13
462 -19 -13
463 -19 -13
464 -19 -13
465 -19 -13
466 -31 -17
467 -31 -17
468 -31 -17
469 -31 -17
470 -31 -17
471 -31 -17
472 -7 -17
473 -7 -17
474 -7 -17
475 -7 -17
476 -7 -17
477 -7 -17
478 -7 -17
479 -7 -17
480 -9 17
481 -9 17
482 -9 17
483 -9 17
484 -9 17
485 -9 17
486 -9 17
487 -9 17
488 -9 0
489 -9 0
490 -9 0
491 -9 0
492 -9 0
493 -9 0
494 -9 0
495 -9 0
496 -4 32
497 -4 32
498 -4 32
499 -4 32
500 -4 32
501 -4 32
502 -20 -16
503 -20 -16
504 -20 -16
505 -20 -16
506 -20 -16
507 -13 -13
508 -13 -13
509 -13 -13
510 -13 -13
511 -13 -13
512 -17 -11
513 -17 -11
514 -17 -11
515 -17 -11
516 -17 -11
517 -9 -8
518 -9 -8
519 -9 -8
520 -9 -8
521 -9 -8
522 -10 -11
523 -10 -11
524 -10 -11
525 -10 -11
526 -10 -11
527 -10 -11
528 -10 -11
529 -13 -8
530 -13 -8
531 -13 -8
532 -13 -8
533 -13 -8
534 -13 -8
535 -13 -8
536 -10 -14
537 -10 -14
538 -10 -14
539 -10 -14
540 -10 -14
541 -16 -14
542 -16 -14
543 -16 -14
544 -16 -14
545 -16 -14
546 -16 -14
547 -15 -9
548 -15 -9
549 -15 -9
550 -15 -9
551 -15 -9
552 -17 -17
553 -17 -17
554 -17 -17
555 -17 -17
556 -17 -17
DEMAND_SECTION
1 0
2 200
3 200
4 200
5 100
6 50
7 10
8 10
9 10
10 200
11 200
12 10
13 200
14 50
15 10
16 10
17 10
18 200
19 200
20 100
21 10
22 10
23 10
24 10
25 200
26 200
27 200
28 200
29 10
30 10
31 200
32 200
33 200
34 100
35 50
36 10
37 10
38 10
39 200
40 200
41 50
42 10
43 10
44 10
45 10
46 100
47 50
48 10
49 10
50 10
51 200
52 50
53 10
54 100
55 10
56 10
57 200
58 200
59 200
60 100
61 10
62 10
63 10
64 10
65 200
66 200
67 10
68 200
69 200
70 50
71 10
72 10
73 200
74 200
75 100
76 10
77 200
78 200
79 200
80 50
81 10
82 200
83 100
84 10
85 10
86 10
87 100
88 50
89 10
90 200
91 200
92 100
93 200
94 200
95 200
96 100
97 50
98 10
99 10
100 10
101 200
102 200
103 100
104 10
105 10
106 10
107 100
108 50
109 10
110 10
111 10
112 200
113 200
114 200
115 200
116 200
117 200
118 10
119 10
120 200
121 200
122 100
123 50
124 10
125 200
126 200
127 200
128 100
129 10
130 10
131 10
132 200
133 200
134 200
135 50
136 10
137 10
138 10
139 100
140 10
141 10
142 200
143 200
144 200
145 100
146 10
147 10
148 200
149 10
150 10
151 100
152 50
153 10
154 10
155 10
156 200
157 200
158 200
159 100
160 50
161 10
162 10
163 10
164 200
165 200
166 200
167 100
168 10
169 10
170 10
171 10
172 200
173 200
174 200
175 100
176 50
177 10
178 200
179 50
180 10
181 10
182 200
183 200
184 200
185 100
186 50
187 10
188 10
189 200
190 200
191 50
192 10
193 10
194 10
195 200
196 200
197 200
198 100
199 10
200 10
201 200
202 200
203 50
204 10
205 10
206 10
207 200
208 200
209 50
210 10
211 10
212 10
213 200
214 200
215 200
216 100
217 50
218 10
219 200
220 50
221 100
222 50
223 200
224 200
225 200
226 200
227 200
228 200
229 10
230 10
231 10
232 200
233 200
234 200
235 200
236 200
237 100
238 10
239 10
240 200
241 200
242 50
243 10
244 10
245 10
246 10
247 200
248 200
249 10
250 10
251 10
252 10
253 200
254 200
255 200
256 100
257 50
258 10
259 10
260 200
261 200
262 100
263 50
264 10
265 10
266 10
267 10
268 200
269 200
270 200
271 10
272 10
273 10
274 200
275 200
276 200
277 10
278 10
279 100
280 50
281 10
282 200
283 200
284 200
285 200
286 10
287 10
288 10
289 200
290 200
291 200
292 50
293 10
294 10
295 10
296 10
297 200
298 200
299 200
300 50
301 10
302 10
303 10
304 200
305 100
306 10
307 10
308 10
309 10
310 200
311 200
312 200
313 50
314 10
315 200
316 200
317 10
318 10
319 200
320 100
321 50
322 10
323 10
324 200
325 200
326 200
327 200
328 200
329 100
330 10
331 200
332 100
333 50
334 200
335 100
336 10
337 10
338 10
339 200
340 100
341 50
342 10
343 10
344 10
345 200
346 200
347 50
348 10
349 10
350 10
351 200
352 200
353 200
354 100
355 50
356 10
357 10
358 10
359 100
360 50
361 10
362 10
363 200
364 200
365 200
366 200
367 50
368 10
369 10
370 10
371 200
372 200
373 200
374 100
375 50
376 10
377 10
378 10
379 10
380 200
381 200
382 200
383 200
384 50
385 200
386 200
387 200
388 200
389 10
390 200
391 200
392 200
393 100
394 50
395 10
396 10
397 200
398 200
399 200
400 200
401 50
402 10
403 10
404 10
405 10
406 100
407 10
408 10
409 10
410 10
411 200
412 100
413 50
414 10
415 200
416 200
417 100
418 50
419 10
420 200
421 200
422 200
423 50
424 10
425 10
426 200
427 200
428 100
429 50
430 200
431 200
432 200
433 100
434 10
435 10
436 10
437 10
438 200
439 200
440 200
441 10
442 10
443 200
444 100
445 10
446 10
447 200
448 200
449 200
450 10
451 10
452 10
453 10
454 200
455 200
456 200
457 10
458 200
459 200
460 200
461 200
462 50
463 10
464 10
465 10
466 200
467 200
468 200
469 100
470 10
471 10
472 200
473 200
474 200
475 200
476 50
477 10
478 10
479 10
480 200
481 200
482 200
483 100
484 10
485 10
486 10
487 10
488 200
489 200
490 200
491 100
492 50
493 10
494 10
495 10
496 100
497 50
498 10
499 10
500 10
501 10
502 200
503 200
504 200
505 100
506 50
507 200
508 200
509 100
510 50
511 10
512 200
513 10
514 10
515 10
516 10
517 200
518 200
519 200
520 200
521 50
522 200
523 200
524 200
525 10
526 10
527 10
528 10
529 200
530 200
531 200
532 100
533 10
534 10
535 10
536 200
537 200
538 200
539 100
540 10
541 200
542 200
543 10
544 10
545 10
546 10
547 200
548 200
549 200
550 100
551 10
552 100
553 50
554 10
555 10
556 10
DEPOT_SECTION
1
-1
EOF