Normalized Data/p03_1090_tsplib0_normalized_splitx10_0.sol
555 -1 7 378 376 374 373 371 370 372 377 375 -6 3 5 4 8 2 266 262 265 264 261 260 -9 399 396 397 402 217 216 278 -10 11 80 78 77 76 79 304 306 -15 14 12 16 13 427 426 425 259 263 -23 20 22 18 17 19 21 289 290 291 292 -26 24 25 322 318 319 320 321 -29 28 27 86 87 88 456 455 453 454 -32 31 37 34 30 33 35 36 -41 40 240 239 245 242 244 243 241 250 249 247 246 251 248 -47 48 46 45 49 236 235 238 237 188 189 190 193 191 192 -50 184 187 181 182 183 186 185 440 441 -52 51 383 379 380 382 381 -53 54 55 331 332 330 166 168 165 170 163 -57 62 63 61 58 56 337 335 336 333 334 -64 66 429 430 431 432 433 436 435 434 -65 282 283 284 281 -68 67 518 517 516 -71 69 70 535 539 199 196 197 507 506 -72 75 74 73 205 203 202 200 201 204 545 -84 85 83 82 466 468 469 465 470 467 555 552 -91 89 90 447 451 449 452 450 446 -92 256 257 258 254 253 255 252 -93 95 99 96 98 94 97 60 59 328 329 327 -105 102 103 104 349 344 346 347 348 345 342 343 340 339 341 338 -107 110 108 106 109 384 386 387 388 385 -123 121 122 119 120 147 149 148 360 359 358 361 -124 130 128 126 127 125 129 294 293 295 288 287 285 286 -131 134 133 132 137 135 136 -139 138 140 368 365 366 364 367 363 362 369 -141 143 146 145 142 144 -154 150 151 152 153 100 101 167 164 169 497 498 496 499 500 495 -159 160 161 162 156 157 158 155 275 277 276 -172 173 437 439 438 -176 175 171 174 269 270 271 272 268 267 -206 351 355 357 356 354 352 353 350 -209 210 211 207 208 115 118 117 114 116 301 300 279 280 -212 213 309 311 310 -215 214 389 392 390 391 -219 218 112 113 111 400 401 404 403 395 393 394 -221 220 222 223 224 307 305 308 303 -232 233 234 231 448 -273 43 42 38 44 39 445 444 442 443 -274 485 479 481 480 483 482 486 484 -299 296 298 302 297 408 407 406 405 409 398 -312 313 478 471 475 474 472 473 476 477 -314 504 502 505 501 503 520 -315 316 317 546 548 547 532 531 533 534 -324 325 323 326 511 -410 411 413 412 414 417 415 416 418 -423 421 422 419 420 424 177 180 178 179 428 -458 457 463 462 461 459 460 464 550 549 -487 488 491 489 490 493 494 492 -510 508 509 195 198 194 541 540 542 544 543 -514 513 515 512 81 226 227 225 229 228 230 553 554 551 -519 521 529 530 528 -524 527 525 526 523 522 538 537 536 0 





OBJ=
3142.834
BEST_KNOWN=
0.000